(set-info :smt-lib-version 2.6)
(set-logic QF_ALIA)
(set-info :source |
Generated by the tool Ultimate Automizer [1,2] which implements
an automata theoretic approach [3] to software verification.

This SMT script belongs to a set of SMT scripts that was generated by
applying Ultimate Automizer to benchmarks [4] from the SV-COMP 2023 [5,6].
This script may not contain all SMT commands that Ultimate Automizer
issued. In order to meet the restrictions for SMT-COMP benchmarks 
we dropped the commands for getting values (resp. models), 
unsatisfiable cores, and interpolants.

2023-03-21, Matthias Heizmann (heizmann@informatik.uni-freiburg.de)

[1] https://ultimate.informatik.uni-freiburg.de/automizer/
[2] Matthias Heizmann, Max Barth, Daniel Dietsch, Leonard Fichtner,
     Jochen Hoenicke, Dominik Klumpp, Mehdi Naouar, Tanja Schindler,
     Frank Schüssele, Andreas Podelski: Ultimate Automizer and the
     CommuHash Normal Form (Competition Contribution). TACAS 2023
[3] Matthias Heizmann, Jochen Hoenicke, Andreas Podelski: Software Model
     Checking for People Who Love Automata. CAV 2013
[4] https://github.com/sosy-lab/sv-benchmarks
[5] Dirk Beyer: Competition on Software Verification and
     Witness Validation: SV-COMP 2023.  TACAS 2023
[6] https://sv-comp.sosy-lab.org/2023/
|)
(set-info :license "https://creativecommons.org/licenses/by/4.0/")
(set-info :category "industrial")
(set-info :status unknown)
(declare-fun |#funAddr~writer.base| () Int)
(declare-fun |#funAddr~writer.offset| () Int)
(declare-fun |#funAddr~reader.base| () Int)
(declare-fun |#funAddr~reader.offset| () Int)
(declare-fun |#funAddr~main_thread.base| () Int)
(declare-fun |#funAddr~main_thread.offset| () Int)
(declare-fun ~unnamed0~0~P_ALL () Int)
(declare-fun ~unnamed0~0~P_PID () Int)
(declare-fun ~unnamed0~0~P_PGID () Int)
(assert (and (= (+ |#funAddr~writer.base| 1) 0) (= |#funAddr~writer.offset| 0)))
(assert (and (= (+ |#funAddr~reader.base| 1) 0) (= |#funAddr~reader.offset| 1)))
(assert (and (= (+ |#funAddr~main_thread.base| 1) 0) (= |#funAddr~main_thread.offset| 2)))
(assert (= ~unnamed0~0~P_ALL 0))
(assert (= ~unnamed0~0~P_PID 1))
(assert (= 2 ~unnamed0~0~P_PGID))
(declare-fun |v_#memory_int_65_const_-458059119| () (Array Int (Array Int Int)))
(declare-fun |v_ULTIMATE.start_main_~#__CS_cp_w~0#1.base_4_const_1806157045| () Int)
(declare-fun |v_ULTIMATE.start_main_~#__CS_cp_w~0#1.offset_4_const_1457814707| () Int)
(declare-fun |v_~#w~0.base_5_const_-205649867| () Int)
(declare-fun |v_~#w~0.offset_5_const_971010995| () Int)
(declare-fun |v_ULTIMATE.start_main_~#__CS_cp_r~0#1.base_4_const_1160757136| () Int)
(declare-fun |v_ULTIMATE.start_main_~#__CS_cp_r~0#1.offset_4_const_-309236562| () Int)
(declare-fun |v_~#r~0.base_6_const_776928687| () Int)
(declare-fun |v_~#r~0.offset_6_const_325594733| () Int)
(declare-fun |v_ULTIMATE.start_main_~#__CS_cp_x~0#1.base_4_const_1935253334| () Int)
(declare-fun |v_ULTIMATE.start_main_~#__CS_cp_x~0#1.offset_4_const_952251092| () Int)
(declare-fun |v_~#x~0.base_4_const_-402024745| () Int)
(declare-fun |v_~#x~0.offset_4_const_1100090901| () Int)
(declare-fun |v_ULTIMATE.start_main_~#__CS_cp_y~0#1.base_4_const_2064333367| () Int)
(declare-fun |v_ULTIMATE.start_main_~#__CS_cp_y~0#1.offset_4_const_446818677| () Int)
(declare-fun |v_~#y~0.base_4_const_-598678024| () Int)
(declare-fun |v_~#y~0.offset_4_const_1229302006| () Int)
(declare-fun |v_~#__CS_thread_born_round~0.base_2_const_1720302587| () Int)
(declare-fun |v_~#__CS_thread_born_round~0.offset_2_const_544850617| () Int)
(declare-fun v_~__CS_round~0_61_const_-563051941 () Int)
(declare-fun |v_~#__CS_thread_status~0.base_5_const_-48473262| () Int)
(declare-fun |v_~#__CS_thread_status~0.offset_5_const_1684530064| () Int)
(declare-fun v_~__THREAD_RUNNING~0_3_const_278392746 () Int)
(declare-fun |v_~#__CS_thread_allocated~0.base_2_const_1055191042| () Int)
(declare-fun |v_~#__CS_thread_allocated~0.offset_2_const_1454422272| () Int)
(declare-fun |v_#memory_int_58_const_-458059083| () (Array Int (Array Int Int)))
(declare-fun |v_#memory_$Pointer$.offset_58_const_1565750378| () (Array Int (Array Int Int)))
(declare-fun |v_#memory_$Pointer$.offset_59_const_1565750379| () (Array Int (Array Int Int)))
(declare-fun |v_#memory_$Pointer$.offset_67_const_1565750340| () (Array Int (Array Int Int)))
(declare-fun |v_#memory_$Pointer$.offset_68_const_1565750341| () (Array Int (Array Int Int)))
(declare-fun |v_#memory_$Pointer$.offset_57_const_1565750373| () (Array Int (Array Int Int)))
(declare-fun |v_#memory_$Pointer$.offset_55_const_1565750375| () (Array Int (Array Int Int)))
(declare-fun |v_#memory_$Pointer$.offset_56_const_1565750372| () (Array Int (Array Int Int)))
(declare-fun |v_#memory_$Pointer$.base_58_const_1527225768| () (Array Int (Array Int Int)))
(declare-fun |v_#memory_$Pointer$.base_59_const_1527225769| () (Array Int (Array Int Int)))
(declare-fun |v_#memory_int_68_const_-458059116| () (Array Int (Array Int Int)))
(declare-fun |v_~#__CS_thread_lockedon~0.base_1_const_-898830643| () Int)
(declare-fun |v_~#__CS_thread_lockedon~0.offset_1_const_541011275| () Int)
(declare-fun |v_#memory_int_69_const_-458059115| () (Array Int (Array Int Int)))
(declare-fun |v_#memory_$Pointer$.base_69_const_1527225736| () (Array Int (Array Int Int)))
(declare-fun |v_#memory_$Pointer$.base_70_const_1527225826| () (Array Int (Array Int Int)))
(declare-fun |v_#memory_int_67_const_-458059113| () (Array Int (Array Int Int)))
(declare-fun |v_#memory_$Pointer$.base_71_const_1527225827| () (Array Int (Array Int Int)))
(declare-fun |v_#memory_$Pointer$.offset_69_const_1565750346| () (Array Int (Array Int Int)))
(declare-fun |v_#memory_$Pointer$.offset_70_const_1565750364| () (Array Int (Array Int Int)))
(declare-fun v_~__CS_thread~0.offset_11_const_-1391952884 () (Array Int Int))
(declare-fun v_~__CS_thread~0.offset_12_const_-1391952883 () (Array Int Int))
(declare-fun |v_#memory_$Pointer$.base_56_const_1527225770| () (Array Int (Array Int Int)))
(declare-fun |v_#memory_$Pointer$.base_57_const_1527225771| () (Array Int (Array Int Int)))
(declare-fun |v_#memory_$Pointer$.base_55_const_1527225765| () (Array Int (Array Int Int)))
(declare-fun |v_#memory_$Pointer$.base_67_const_1527225738| () (Array Int (Array Int Int)))
(declare-fun |v_#memory_$Pointer$.base_68_const_1527225739| () (Array Int (Array Int Int)))
(declare-fun |v_#memory_$Pointer$.base_60_const_1527225731| () (Array Int (Array Int Int)))
(declare-fun v_~__CS_thread_index~0_12_const_-271169768 () Int)
(declare-fun |v_#memory_$Pointer$.offset_71_const_1565750365| () (Array Int (Array Int Int)))
(declare-fun |v_#memory_int_66_const_-458059114| () (Array Int (Array Int Int)))
(declare-fun |v_#memory_int_75_const_-458059024| () (Array Int (Array Int Int)))
(declare-fun |v_ULTIMATE.start_main_~#__CS_cp___CS_thread_status~0#1.base_4_const_1145879120| () Int)
(declare-fun |v_ULTIMATE.start_main_~#__CS_cp___CS_thread_status~0#1.offset_4_const_-1593690258| () Int)
(declare-fun |v_ULTIMATE.start_main_#t~mem74#1_1_const_653155893| () Int)
(declare-fun |v_ULTIMATE.start_main_~#__CS_cp___CS_thread_lockedon~0#1.base_4_const_-1095316409| () Int)
(declare-fun |v_ULTIMATE.start_main_~#__CS_cp___CS_thread_lockedon~0#1.offset_4_const_697868165| () Int)
(declare-fun |v_#memory_$Pointer$.offset_61_const_1565750338| () (Array Int (Array Int Int)))
(declare-fun v_~__CS_thread~0.base_12_const_227311375 () (Array Int Int))
(declare-fun v_~__CS_thread~0.base_11_const_227311374 () (Array Int Int))
(declare-fun |v_#memory_$Pointer$.offset_60_const_1565750397| () (Array Int (Array Int Int)))
(declare-fun |v_#memory_$Pointer$.base_72_const_1527225824| () (Array Int (Array Int Int)))
(declare-fun |v_#memory_$Pointer$.base_61_const_1527225728| () (Array Int (Array Int Int)))
(declare-fun |v_#memory_$Pointer$.offset_72_const_1565750434| () (Array Int (Array Int Int)))
(assert (let ((.cse5 (select |v_#memory_int_68_const_-458059116| |v_~#__CS_thread_lockedon~0.base_1_const_-898830643|)) (.cse6 (select |v_#memory_$Pointer$.base_70_const_1527225826| |v_~#__CS_thread_status~0.base_5_const_-48473262|)) (.cse13 (select |v_#memory_$Pointer$.offset_70_const_1565750364| |v_~#__CS_thread_status~0.base_5_const_-48473262|)) (.cse10 (select |v_#memory_int_67_const_-458059113| |v_~#__CS_thread_lockedon~0.base_1_const_-898830643|)) (.cse3 (select |v_#memory_int_69_const_-458059115| |v_~#__CS_thread_lockedon~0.base_1_const_-898830643|)) (.cse2 (+ 9 |v_~#__CS_thread_status~0.offset_5_const_1684530064|)) (.cse7 (+ 7 |v_~#__CS_thread_status~0.offset_5_const_1684530064|)) (.cse12 (+ 6 |v_~#__CS_thread_status~0.offset_5_const_1684530064|)) (.cse11 (select |v_#memory_$Pointer$.base_71_const_1527225827| |v_~#__CS_thread_status~0.base_5_const_-48473262|)) (.cse17 (select |v_#memory_$Pointer$.offset_71_const_1565750365| |v_~#__CS_thread_status~0.base_5_const_-48473262|)) (.cse27 (+ 5 |v_~#__CS_thread_status~0.offset_5_const_1684530064|)) (.cse32 (+ 72 |v_ULTIMATE.start_main_~#__CS_cp___CS_thread_lockedon~0#1.offset_4_const_697868165|)) (.cse18 (+ 64 |v_~#__CS_thread_lockedon~0.offset_1_const_541011275|)) (.cse34 (+ 64 |v_ULTIMATE.start_main_~#__CS_cp___CS_thread_lockedon~0#1.offset_4_const_697868165|)) (.cse9 (+ 56 |v_~#__CS_thread_lockedon~0.offset_1_const_541011275|)) (.cse36 (+ 56 |v_ULTIMATE.start_main_~#__CS_cp___CS_thread_lockedon~0#1.offset_4_const_697868165|)) (.cse4 (+ |v_~#__CS_thread_lockedon~0.offset_1_const_541011275| 48)) (.cse38 (+ 48 |v_ULTIMATE.start_main_~#__CS_cp___CS_thread_lockedon~0#1.offset_4_const_697868165|)) (.cse21 (+ 40 |v_~#__CS_thread_lockedon~0.offset_1_const_541011275|)) (.cse39 (+ 40 |v_ULTIMATE.start_main_~#__CS_cp___CS_thread_lockedon~0#1.offset_4_const_697868165|)) (.cse14 (select |v_#memory_$Pointer$.offset_69_const_1565750346| |v_~#__CS_thread_status~0.base_5_const_-48473262|)) (.cse1 (select |v_#memory_$Pointer$.offset_68_const_1565750341| |v_~#__CS_thread_status~0.base_5_const_-48473262|)) (.cse8 (select |v_#memory_$Pointer$.base_69_const_1527225736| |v_~#__CS_thread_status~0.base_5_const_-48473262|)) (.cse15 (select |v_#memory_$Pointer$.base_68_const_1527225739| |v_~#__CS_thread_status~0.base_5_const_-48473262|)) (.cse24 (+ 8 |v_~#__CS_thread_status~0.offset_5_const_1684530064|)) (.cse0 (+ |v_~#y~0.offset_4_const_1229302006| 4)) (.cse16 (+ |v_~#x~0.offset_4_const_1100090901| 4)) (.cse40 (+ |v_~#r~0.offset_6_const_325594733| 4)) (.cse29 (+ |v_~#w~0.offset_5_const_971010995| 4)) (.cse19 (select |v_#memory_int_66_const_-458059114| |v_~#__CS_thread_lockedon~0.base_1_const_-898830643|)) (.cse31 (+ 72 |v_~#__CS_thread_lockedon~0.offset_1_const_541011275|))) (and (= (store |v_#memory_$Pointer$.offset_59_const_1565750379| |v_~#y~0.base_4_const_-598678024| (store (select |v_#memory_$Pointer$.offset_59_const_1565750379| |v_~#y~0.base_4_const_-598678024|) .cse0 (select (select |v_#memory_$Pointer$.offset_58_const_1565750378| |v_~#y~0.base_4_const_-598678024|) .cse0))) |v_#memory_$Pointer$.offset_58_const_1565750378|) (= (store |v_#memory_$Pointer$.offset_68_const_1565750341| |v_~#__CS_thread_status~0.base_5_const_-48473262| (store .cse1 .cse2 (select (select |v_#memory_$Pointer$.offset_67_const_1565750340| |v_~#__CS_thread_status~0.base_5_const_-48473262|) .cse2))) |v_#memory_$Pointer$.offset_67_const_1565750340|) (= (store |v_#memory_$Pointer$.offset_58_const_1565750378| |v_~#__CS_thread_born_round~0.base_2_const_1720302587| (store (select |v_#memory_$Pointer$.offset_58_const_1565750378| |v_~#__CS_thread_born_round~0.base_2_const_1720302587|) |v_~#__CS_thread_born_round~0.offset_2_const_544850617| (select (select |v_#memory_$Pointer$.offset_57_const_1565750373| |v_~#__CS_thread_born_round~0.base_2_const_1720302587|) |v_~#__CS_thread_born_round~0.offset_2_const_544850617|))) |v_#memory_$Pointer$.offset_57_const_1565750373|) (= |v_#memory_$Pointer$.offset_55_const_1565750375| (store |v_#memory_$Pointer$.offset_56_const_1565750372| |v_~#__CS_thread_allocated~0.base_2_const_1055191042| (store (select |v_#memory_$Pointer$.offset_56_const_1565750372| |v_~#__CS_thread_allocated~0.base_2_const_1055191042|) |v_~#__CS_thread_allocated~0.offset_2_const_1454422272| (select (select |v_#memory_$Pointer$.offset_55_const_1565750375| |v_~#__CS_thread_allocated~0.base_2_const_1055191042|) |v_~#__CS_thread_allocated~0.offset_2_const_1454422272|)))) (= |v_#memory_$Pointer$.base_58_const_1527225768| (store |v_#memory_$Pointer$.base_59_const_1527225769| |v_~#y~0.base_4_const_-598678024| (store (select |v_#memory_$Pointer$.base_59_const_1527225769| |v_~#y~0.base_4_const_-598678024|) .cse0 (select (select |v_#memory_$Pointer$.base_58_const_1527225768| |v_~#y~0.base_4_const_-598678024|) .cse0)))) (= |v_#memory_int_68_const_-458059116| (store |v_#memory_int_69_const_-458059115| |v_~#__CS_thread_lockedon~0.base_1_const_-898830643| (store .cse3 .cse4 (select .cse5 .cse4)))) (= |v_#memory_$Pointer$.base_69_const_1527225736| (store |v_#memory_$Pointer$.base_70_const_1527225826| |v_~#__CS_thread_status~0.base_5_const_-48473262| (store .cse6 .cse7 (select .cse8 .cse7)))) (= |v_#memory_int_67_const_-458059113| (store |v_#memory_int_68_const_-458059116| |v_~#__CS_thread_lockedon~0.base_1_const_-898830643| (store .cse5 .cse9 (select .cse10 .cse9)))) (= (store |v_#memory_$Pointer$.base_71_const_1527225827| |v_~#__CS_thread_status~0.base_5_const_-48473262| (store .cse11 .cse12 (select .cse6 .cse12))) |v_#memory_$Pointer$.base_70_const_1527225826|) (= (store |v_#memory_$Pointer$.offset_70_const_1565750364| |v_~#__CS_thread_status~0.base_5_const_-48473262| (store .cse13 .cse7 (select .cse14 .cse7))) |v_#memory_$Pointer$.offset_69_const_1565750346|) (= v_~__CS_thread~0.offset_11_const_-1391952884 (store v_~__CS_thread~0.offset_12_const_-1391952883 0 |#funAddr~main_thread.offset|)) (= |v_#memory_$Pointer$.base_56_const_1527225770| (store |v_#memory_$Pointer$.base_57_const_1527225771| |v_~#__CS_thread_status~0.base_5_const_-48473262| (store (select |v_#memory_$Pointer$.base_57_const_1527225771| |v_~#__CS_thread_status~0.base_5_const_-48473262|) |v_~#__CS_thread_status~0.offset_5_const_1684530064| (select (select |v_#memory_$Pointer$.base_56_const_1527225770| |v_~#__CS_thread_status~0.base_5_const_-48473262|) |v_~#__CS_thread_status~0.offset_5_const_1684530064|)))) (= (store |v_#memory_$Pointer$.base_56_const_1527225770| |v_~#__CS_thread_allocated~0.base_2_const_1055191042| (store (select |v_#memory_$Pointer$.base_56_const_1527225770| |v_~#__CS_thread_allocated~0.base_2_const_1055191042|) |v_~#__CS_thread_allocated~0.offset_2_const_1454422272| (select (select |v_#memory_$Pointer$.base_55_const_1527225765| |v_~#__CS_thread_allocated~0.base_2_const_1055191042|) |v_~#__CS_thread_allocated~0.offset_2_const_1454422272|))) |v_#memory_$Pointer$.base_55_const_1527225765|) (= (store |v_#memory_$Pointer$.base_68_const_1527225739| |v_~#__CS_thread_status~0.base_5_const_-48473262| (store .cse15 .cse2 (select (select |v_#memory_$Pointer$.base_67_const_1527225738| |v_~#__CS_thread_status~0.base_5_const_-48473262|) .cse2))) |v_#memory_$Pointer$.base_67_const_1527225738|) (= (store |v_#memory_$Pointer$.base_60_const_1527225731| |v_~#x~0.base_4_const_-402024745| (store (select |v_#memory_$Pointer$.base_60_const_1527225731| |v_~#x~0.base_4_const_-402024745|) .cse16 (select (select |v_#memory_$Pointer$.base_59_const_1527225769| |v_~#x~0.base_4_const_-402024745|) .cse16))) |v_#memory_$Pointer$.base_59_const_1527225769|) (= v_~__CS_thread_index~0_12_const_-271169768 0) (= (store |v_#memory_$Pointer$.offset_71_const_1565750365| |v_~#__CS_thread_status~0.base_5_const_-48473262| (store .cse17 .cse12 (select .cse13 .cse12))) |v_#memory_$Pointer$.offset_70_const_1565750364|) (= |v_#memory_int_66_const_-458059114| (store |v_#memory_int_67_const_-458059113| |v_~#__CS_thread_lockedon~0.base_1_const_-898830643| (store .cse10 .cse18 (select .cse19 .cse18)))) (= (let ((.cse20 (store |v_#memory_int_75_const_-458059024| |v_~#__CS_thread_status~0.base_5_const_-48473262| (let ((.cse22 (let ((.cse23 (let ((.cse25 (let ((.cse26 (store (select |v_#memory_int_75_const_-458059024| |v_~#__CS_thread_status~0.base_5_const_-48473262|) .cse27 (select (select |v_#memory_int_75_const_-458059024| |v_ULTIMATE.start_main_~#__CS_cp___CS_thread_status~0#1.base_4_const_1145879120|) (+ |v_ULTIMATE.start_main_~#__CS_cp___CS_thread_status~0#1.offset_4_const_-1593690258| 5))))) (store .cse26 .cse12 (select (select (store |v_#memory_int_75_const_-458059024| |v_~#__CS_thread_status~0.base_5_const_-48473262| .cse26) |v_ULTIMATE.start_main_~#__CS_cp___CS_thread_status~0#1.base_4_const_1145879120|) (+ |v_ULTIMATE.start_main_~#__CS_cp___CS_thread_status~0#1.offset_4_const_-1593690258| 6)))))) (store .cse25 .cse7 (select (select (store |v_#memory_int_75_const_-458059024| |v_~#__CS_thread_status~0.base_5_const_-48473262| .cse25) |v_ULTIMATE.start_main_~#__CS_cp___CS_thread_status~0#1.base_4_const_1145879120|) (+ |v_ULTIMATE.start_main_~#__CS_cp___CS_thread_status~0#1.offset_4_const_-1593690258| 7)))))) (store .cse23 .cse24 (select (select (store |v_#memory_int_75_const_-458059024| |v_~#__CS_thread_status~0.base_5_const_-48473262| .cse23) |v_ULTIMATE.start_main_~#__CS_cp___CS_thread_status~0#1.base_4_const_1145879120|) (+ |v_ULTIMATE.start_main_~#__CS_cp___CS_thread_status~0#1.offset_4_const_-1593690258| 8)))))) (store .cse22 .cse2 (select (select (store |v_#memory_int_75_const_-458059024| |v_~#__CS_thread_status~0.base_5_const_-48473262| .cse22) |v_ULTIMATE.start_main_~#__CS_cp___CS_thread_status~0#1.base_4_const_1145879120|) (+ |v_ULTIMATE.start_main_~#__CS_cp___CS_thread_status~0#1.offset_4_const_-1593690258| 9))))))) (store .cse20 |v_~#__CS_thread_lockedon~0.base_1_const_-898830643| (store (select .cse20 |v_~#__CS_thread_lockedon~0.base_1_const_-898830643|) .cse21 (select .cse3 .cse21)))) |v_#memory_int_69_const_-458059115|) (= (select (select |v_#memory_int_58_const_-458059083| |v_~#__CS_thread_allocated~0.base_2_const_1055191042|) |v_~#__CS_thread_allocated~0.offset_2_const_1454422272|) |v_ULTIMATE.start_main_#t~mem74#1_1_const_653155893|) (= (let ((.cse28 (store |v_#memory_$Pointer$.offset_67_const_1565750340| |v_~#__CS_thread_lockedon~0.base_1_const_-898830643| (let ((.cse30 (let ((.cse33 (let ((.cse35 (let ((.cse37 (store (select |v_#memory_$Pointer$.offset_67_const_1565750340| |v_~#__CS_thread_lockedon~0.base_1_const_-898830643|) .cse21 (select (select |v_#memory_$Pointer$.offset_67_const_1565750340| |v_ULTIMATE.start_main_~#__CS_cp___CS_thread_lockedon~0#1.base_4_const_-1095316409|) .cse39)))) (store .cse37 .cse4 (select (select (store |v_#memory_$Pointer$.offset_67_const_1565750340| |v_~#__CS_thread_lockedon~0.base_1_const_-898830643| .cse37) |v_ULTIMATE.start_main_~#__CS_cp___CS_thread_lockedon~0#1.base_4_const_-1095316409|) .cse38))))) (store .cse35 .cse9 (select (select (store |v_#memory_$Pointer$.offset_67_const_1565750340| |v_~#__CS_thread_lockedon~0.base_1_const_-898830643| .cse35) |v_ULTIMATE.start_main_~#__CS_cp___CS_thread_lockedon~0#1.base_4_const_-1095316409|) .cse36))))) (store .cse33 .cse18 (select (select (store |v_#memory_$Pointer$.offset_67_const_1565750340| |v_~#__CS_thread_lockedon~0.base_1_const_-898830643| .cse33) |v_ULTIMATE.start_main_~#__CS_cp___CS_thread_lockedon~0#1.base_4_const_-1095316409|) .cse34))))) (store .cse30 .cse31 (select (select (store |v_#memory_$Pointer$.offset_67_const_1565750340| |v_~#__CS_thread_lockedon~0.base_1_const_-898830643| .cse30) |v_ULTIMATE.start_main_~#__CS_cp___CS_thread_lockedon~0#1.base_4_const_-1095316409|) .cse32)))))) (store .cse28 |v_~#w~0.base_5_const_-205649867| (store (select .cse28 |v_~#w~0.base_5_const_-205649867|) .cse29 (select (select |v_#memory_$Pointer$.offset_61_const_1565750338| |v_~#w~0.base_5_const_-205649867|) .cse29)))) |v_#memory_$Pointer$.offset_61_const_1565750338|) (= (store v_~__CS_thread~0.base_12_const_227311375 0 |#funAddr~main_thread.base|) v_~__CS_thread~0.base_11_const_227311374) (= |v_#memory_$Pointer$.offset_59_const_1565750379| (store |v_#memory_$Pointer$.offset_60_const_1565750397| |v_~#x~0.base_4_const_-402024745| (store (select |v_#memory_$Pointer$.offset_60_const_1565750397| |v_~#x~0.base_4_const_-402024745|) .cse16 (select (select |v_#memory_$Pointer$.offset_59_const_1565750379| |v_~#x~0.base_4_const_-402024745|) .cse16)))) (= (store |v_#memory_$Pointer$.base_72_const_1527225824| |v_~#__CS_thread_status~0.base_5_const_-48473262| (store (select |v_#memory_$Pointer$.base_72_const_1527225824| |v_~#__CS_thread_status~0.base_5_const_-48473262|) .cse27 (select .cse11 .cse27))) |v_#memory_$Pointer$.base_71_const_1527225827|) (= |v_#memory_$Pointer$.base_60_const_1527225731| (store |v_#memory_$Pointer$.base_61_const_1527225728| |v_~#r~0.base_6_const_776928687| (store (select |v_#memory_$Pointer$.base_61_const_1527225728| |v_~#r~0.base_6_const_776928687|) .cse40 (select (select |v_#memory_$Pointer$.base_60_const_1527225731| |v_~#r~0.base_6_const_776928687|) .cse40)))) (= (store |v_#memory_$Pointer$.base_58_const_1527225768| |v_~#__CS_thread_born_round~0.base_2_const_1720302587| (store (select |v_#memory_$Pointer$.base_58_const_1527225768| |v_~#__CS_thread_born_round~0.base_2_const_1720302587|) |v_~#__CS_thread_born_round~0.offset_2_const_544850617| (select (select |v_#memory_$Pointer$.base_57_const_1527225771| |v_~#__CS_thread_born_round~0.base_2_const_1720302587|) |v_~#__CS_thread_born_round~0.offset_2_const_544850617|))) |v_#memory_$Pointer$.base_57_const_1527225771|) (= (store |v_#memory_$Pointer$.offset_61_const_1565750338| |v_~#r~0.base_6_const_776928687| (store (select |v_#memory_$Pointer$.offset_61_const_1565750338| |v_~#r~0.base_6_const_776928687|) .cse40 (select (select |v_#memory_$Pointer$.offset_60_const_1565750397| |v_~#r~0.base_6_const_776928687|) .cse40))) |v_#memory_$Pointer$.offset_60_const_1565750397|) (= (store |v_#memory_$Pointer$.offset_72_const_1565750434| |v_~#__CS_thread_status~0.base_5_const_-48473262| (store (select |v_#memory_$Pointer$.offset_72_const_1565750434| |v_~#__CS_thread_status~0.base_5_const_-48473262|) .cse27 (select .cse17 .cse27))) |v_#memory_$Pointer$.offset_71_const_1565750365|) (= (let ((.cse41 (store |v_#memory_$Pointer$.base_67_const_1527225738| |v_~#__CS_thread_lockedon~0.base_1_const_-898830643| (let ((.cse42 (let ((.cse43 (let ((.cse44 (let ((.cse45 (store (select |v_#memory_$Pointer$.base_67_const_1527225738| |v_~#__CS_thread_lockedon~0.base_1_const_-898830643|) .cse21 (select (select |v_#memory_$Pointer$.base_67_const_1527225738| |v_ULTIMATE.start_main_~#__CS_cp___CS_thread_lockedon~0#1.base_4_const_-1095316409|) .cse39)))) (store .cse45 .cse4 (select (select (store |v_#memory_$Pointer$.base_67_const_1527225738| |v_~#__CS_thread_lockedon~0.base_1_const_-898830643| .cse45) |v_ULTIMATE.start_main_~#__CS_cp___CS_thread_lockedon~0#1.base_4_const_-1095316409|) .cse38))))) (store .cse44 .cse9 (select (select (store |v_#memory_$Pointer$.base_67_const_1527225738| |v_~#__CS_thread_lockedon~0.base_1_const_-898830643| .cse44) |v_ULTIMATE.start_main_~#__CS_cp___CS_thread_lockedon~0#1.base_4_const_-1095316409|) .cse36))))) (store .cse43 .cse18 (select (select (store |v_#memory_$Pointer$.base_67_const_1527225738| |v_~#__CS_thread_lockedon~0.base_1_const_-898830643| .cse43) |v_ULTIMATE.start_main_~#__CS_cp___CS_thread_lockedon~0#1.base_4_const_-1095316409|) .cse34))))) (store .cse42 .cse31 (select (select (store |v_#memory_$Pointer$.base_67_const_1527225738| |v_~#__CS_thread_lockedon~0.base_1_const_-898830643| .cse42) |v_ULTIMATE.start_main_~#__CS_cp___CS_thread_lockedon~0#1.base_4_const_-1095316409|) .cse32)))))) (store .cse41 |v_~#w~0.base_5_const_-205649867| (store (select .cse41 |v_~#w~0.base_5_const_-205649867|) .cse29 (select (select |v_#memory_$Pointer$.base_61_const_1527225728| |v_~#w~0.base_5_const_-205649867|) .cse29)))) |v_#memory_$Pointer$.base_61_const_1527225728|) (= (store |v_#memory_$Pointer$.offset_57_const_1565750373| |v_~#__CS_thread_status~0.base_5_const_-48473262| (store (select |v_#memory_$Pointer$.offset_57_const_1565750373| |v_~#__CS_thread_status~0.base_5_const_-48473262|) |v_~#__CS_thread_status~0.offset_5_const_1684530064| (select (select |v_#memory_$Pointer$.offset_56_const_1565750372| |v_~#__CS_thread_status~0.base_5_const_-48473262|) |v_~#__CS_thread_status~0.offset_5_const_1684530064|))) |v_#memory_$Pointer$.offset_56_const_1565750372|) (= v_~__CS_round~0_61_const_-563051941 0) (= (store |v_#memory_$Pointer$.offset_69_const_1565750346| |v_~#__CS_thread_status~0.base_5_const_-48473262| (store .cse14 .cse24 (select .cse1 .cse24))) |v_#memory_$Pointer$.offset_68_const_1565750341|) (= (store |v_#memory_$Pointer$.base_69_const_1527225736| |v_~#__CS_thread_status~0.base_5_const_-48473262| (store .cse8 .cse24 (select .cse15 .cse24))) |v_#memory_$Pointer$.base_68_const_1527225739|) (= |v_#memory_int_58_const_-458059083| (let ((.cse46 (let ((.cse47 (let ((.cse48 (let ((.cse49 (let ((.cse50 (let ((.cse51 (store |v_#memory_int_65_const_-458059119| |v_~#w~0.base_5_const_-205649867| (store (select |v_#memory_int_65_const_-458059119| |v_~#w~0.base_5_const_-205649867|) .cse29 (select (select |v_#memory_int_65_const_-458059119| |v_ULTIMATE.start_main_~#__CS_cp_w~0#1.base_4_const_1806157045|) (+ 4 |v_ULTIMATE.start_main_~#__CS_cp_w~0#1.offset_4_const_1457814707|)))))) (store .cse51 |v_~#r~0.base_6_const_776928687| (store (select .cse51 |v_~#r~0.base_6_const_776928687|) .cse40 (select (select .cse51 |v_ULTIMATE.start_main_~#__CS_cp_r~0#1.base_4_const_1160757136|) (+ |v_ULTIMATE.start_main_~#__CS_cp_r~0#1.offset_4_const_-309236562| 4))))))) (store .cse50 |v_~#x~0.base_4_const_-402024745| (store (select .cse50 |v_~#x~0.base_4_const_-402024745|) .cse16 (select (select .cse50 |v_ULTIMATE.start_main_~#__CS_cp_x~0#1.base_4_const_1935253334|) (+ |v_ULTIMATE.start_main_~#__CS_cp_x~0#1.offset_4_const_952251092| 4))))))) (store .cse49 |v_~#y~0.base_4_const_-598678024| (store (select .cse49 |v_~#y~0.base_4_const_-598678024|) .cse0 (select (select .cse49 |v_ULTIMATE.start_main_~#__CS_cp_y~0#1.base_4_const_2064333367|) (+ |v_ULTIMATE.start_main_~#__CS_cp_y~0#1.offset_4_const_446818677| 4))))))) (store .cse48 |v_~#__CS_thread_born_round~0.base_2_const_1720302587| (store (select .cse48 |v_~#__CS_thread_born_round~0.base_2_const_1720302587|) |v_~#__CS_thread_born_round~0.offset_2_const_544850617| v_~__CS_round~0_61_const_-563051941))))) (store .cse47 |v_~#__CS_thread_status~0.base_5_const_-48473262| (store (select .cse47 |v_~#__CS_thread_status~0.base_5_const_-48473262|) |v_~#__CS_thread_status~0.offset_5_const_1684530064| v_~__THREAD_RUNNING~0_3_const_278392746))))) (store .cse46 |v_~#__CS_thread_allocated~0.base_2_const_1055191042| (store (select .cse46 |v_~#__CS_thread_allocated~0.base_2_const_1055191042|) |v_~#__CS_thread_allocated~0.offset_2_const_1454422272| 1)))) (= |v_#memory_int_65_const_-458059119| (store |v_#memory_int_66_const_-458059114| |v_~#__CS_thread_lockedon~0.base_1_const_-898830643| (store .cse19 .cse31 (select (select |v_#memory_int_65_const_-458059119| |v_~#__CS_thread_lockedon~0.base_1_const_-898830643|) .cse31)))))))
(check-sat)
(exit)
